(declare-datatypes () ((Edge (mk-edge (src String) (dst String))))) ; to have a type edge to manipulate, Edge is from the record (tuple) theory 
(declare-fun delay ((Edge)) Int) ;a function must be provided or later a restriction that the function must return > 0 
(declare-fun bandwidth ((Edge)) Int)  ; a function must be provided or later a restriction that the function must return > 0 
(declare-const edges (Array Int Edge)) ; an array of edges  
(declare-const nodes (Array Int String)) ; an array of nodes 
(declare-fun edges_size () Int) ; a function must be provided or later a restriction that the function must return > 0 
(declare-fun nodes_size () Int) 
(assert (> edges_size 0) ) ; a restriction on the edge size that must be greater than 0 
(assert (> nodes_size 0) ) 
;; end of initial configuration, starts specific graph configs 
(assert (= (store nodes 1 "n1") nodes))
(assert (= (store nodes 2 "n2") nodes))
(assert (= (store nodes 3 "n3") nodes))
(assert (= (store nodes 4 "n4") nodes))
(assert (= (store nodes 5 "n5") nodes))
(assert (= (store nodes 6 "n6") nodes))
(assert (= (store nodes 7 "n7") nodes))
(assert (= (store nodes 8 "n8") nodes))
(assert (= (store nodes 9 "n9") nodes))
(assert (= (store nodes 10 "n10") nodes))
(assert (= (store nodes 11 "n11") nodes))
(assert (= nodes_size 11)) 
(assert (= (store edges 1 (mk-edge "n1" "n2")) edges)) 
(assert (= 3091034 (bandwidth (select edges 1)) ) )
(assert (= 31 (delay (select edges 1)) ) )
(assert (= (store edges 2 (mk-edge "n1" "n3")) edges)) 
(assert (= 1029836 (bandwidth (select edges 2)) ) )
(assert (= 11 (delay (select edges 2)) ) )
(assert (= (store edges 3 (mk-edge "n1" "n4")) edges)) 
(assert (= 3649897 (bandwidth (select edges 3)) ) )
(assert (= 37 (delay (select edges 3)) ) )
(assert (= (store edges 4 (mk-edge "n1" "n5")) edges)) 
(assert (= 2006113 (bandwidth (select edges 4)) ) )
(assert (= 21 (delay (select edges 4)) ) )
(assert (= (store edges 5 (mk-edge "n1" "n6")) edges)) 
(assert (= 8708067 (bandwidth (select edges 5)) ) )
(assert (= 88 (delay (select edges 5)) ) )
(assert (= (store edges 6 (mk-edge "n1" "n9")) edges)) 
(assert (= 2195200 (bandwidth (select edges 6)) ) )
(assert (= 22 (delay (select edges 6)) ) )
(assert (= (store edges 7 (mk-edge "n2" "n1")) edges)) 
(assert (= 8335068 (bandwidth (select edges 7)) ) )
(assert (= 84 (delay (select edges 7)) ) )
(assert (= (store edges 8 (mk-edge "n2" "n3")) edges)) 
(assert (= 9998441 (bandwidth (select edges 8)) ) )
(assert (= 100 (delay (select edges 8)) ) )
(assert (= (store edges 9 (mk-edge "n2" "n4")) edges)) 
(assert (= 3284671 (bandwidth (select edges 9)) ) )
(assert (= 33 (delay (select edges 9)) ) )
(assert (= (store edges 10 (mk-edge "n2" "n5")) edges)) 
(assert (= 132623 (bandwidth (select edges 10)) ) )
(assert (= 2 (delay (select edges 10)) ) )
(assert (= (store edges 11 (mk-edge "n2" "n6")) edges)) 
(assert (= 3519800 (bandwidth (select edges 11)) ) )
(assert (= 36 (delay (select edges 11)) ) )
(assert (= (store edges 12 (mk-edge "n2" "n7")) edges)) 
(assert (= 1131865 (bandwidth (select edges 12)) ) )
(assert (= 12 (delay (select edges 12)) ) )
(assert (= (store edges 13 (mk-edge "n2" "n9")) edges)) 
(assert (= 6827682 (bandwidth (select edges 13)) ) )
(assert (= 69 (delay (select edges 13)) ) )
(assert (= (store edges 14 (mk-edge "n2" "n10")) edges)) 
(assert (= 1354774 (bandwidth (select edges 14)) ) )
(assert (= 14 (delay (select edges 14)) ) )
(assert (= (store edges 15 (mk-edge "n2" "n11")) edges)) 
(assert (= 425465 (bandwidth (select edges 15)) ) )
(assert (= 5 (delay (select edges 15)) ) )
(assert (= (store edges 16 (mk-edge "n3" "n1")) edges)) 
(assert (= 1225819 (bandwidth (select edges 16)) ) )
(assert (= 13 (delay (select edges 16)) ) )
(assert (= (store edges 17 (mk-edge "n3" "n2")) edges)) 
(assert (= 4546416 (bandwidth (select edges 17)) ) )
(assert (= 46 (delay (select edges 17)) ) )
(assert (= (store edges 18 (mk-edge "n3" "n4")) edges)) 
(assert (= 988847 (bandwidth (select edges 18)) ) )
(assert (= 10 (delay (select edges 18)) ) )
(assert (= (store edges 19 (mk-edge "n3" "n5")) edges)) 
(assert (= 5393638 (bandwidth (select edges 19)) ) )
(assert (= 54 (delay (select edges 19)) ) )
(assert (= (store edges 20 (mk-edge "n3" "n7")) edges)) 
(assert (= 28449310 (bandwidth (select edges 20)) ) )
(assert (= 285 (delay (select edges 20)) ) )
(assert (= (store edges 21 (mk-edge "n3" "n8")) edges)) 
(assert (= 1039211 (bandwidth (select edges 21)) ) )
(assert (= 11 (delay (select edges 21)) ) )
(assert (= (store edges 22 (mk-edge "n3" "n10")) edges)) 
(assert (= 1757825 (bandwidth (select edges 22)) ) )
(assert (= 18 (delay (select edges 22)) ) )
(assert (= (store edges 23 (mk-edge "n3" "n11")) edges)) 
(assert (= 3208756 (bandwidth (select edges 23)) ) )
(assert (= 33 (delay (select edges 23)) ) )
(assert (= (store edges 24 (mk-edge "n4" "n1")) edges)) 
(assert (= 27262443 (bandwidth (select edges 24)) ) )
(assert (= 273 (delay (select edges 24)) ) )
(assert (= (store edges 25 (mk-edge "n4" "n2")) edges)) 
(assert (= 2169951 (bandwidth (select edges 25)) ) )
(assert (= 22 (delay (select edges 25)) ) )
(assert (= (store edges 26 (mk-edge "n4" "n3")) edges)) 
(assert (= 1894611 (bandwidth (select edges 26)) ) )
(assert (= 19 (delay (select edges 26)) ) )
(assert (= (store edges 27 (mk-edge "n4" "n5")) edges)) 
(assert (= 3992661 (bandwidth (select edges 27)) ) )
(assert (= 40 (delay (select edges 27)) ) )
(assert (= (store edges 28 (mk-edge "n4" "n6")) edges)) 
(assert (= 1952962 (bandwidth (select edges 28)) ) )
(assert (= 20 (delay (select edges 28)) ) )
(assert (= (store edges 29 (mk-edge "n4" "n7")) edges)) 
(assert (= 12078851 (bandwidth (select edges 29)) ) )
(assert (= 121 (delay (select edges 29)) ) )
(assert (= (store edges 30 (mk-edge "n5" "n1")) edges)) 
(assert (= 6711547 (bandwidth (select edges 30)) ) )
(assert (= 68 (delay (select edges 30)) ) )
(assert (= (store edges 31 (mk-edge "n5" "n2")) edges)) 
(assert (= 186698 (bandwidth (select edges 31)) ) )
(assert (= 2 (delay (select edges 31)) ) )
(assert (= (store edges 32 (mk-edge "n5" "n3")) edges)) 
(assert (= 9740009 (bandwidth (select edges 32)) ) )
(assert (= 98 (delay (select edges 32)) ) )
(assert (= (store edges 33 (mk-edge "n5" "n4")) edges)) 
(assert (= 6939826 (bandwidth (select edges 33)) ) )
(assert (= 70 (delay (select edges 33)) ) )
(assert (= (store edges 34 (mk-edge "n5" "n6")) edges)) 
(assert (= 5729110 (bandwidth (select edges 34)) ) )
(assert (= 58 (delay (select edges 34)) ) )
(assert (= (store edges 35 (mk-edge "n5" "n8")) edges)) 
(assert (= 25475481 (bandwidth (select edges 35)) ) )
(assert (= 255 (delay (select edges 35)) ) )
(assert (= (store edges 36 (mk-edge "n5" "n10")) edges)) 
(assert (= 12381238 (bandwidth (select edges 36)) ) )
(assert (= 124 (delay (select edges 36)) ) )
(assert (= (store edges 37 (mk-edge "n5" "n11")) edges)) 
(assert (= 24032763 (bandwidth (select edges 37)) ) )
(assert (= 241 (delay (select edges 37)) ) )
(assert (= (store edges 38 (mk-edge "n6" "n1")) edges)) 
(assert (= 26507454 (bandwidth (select edges 38)) ) )
(assert (= 266 (delay (select edges 38)) ) )
(assert (= (store edges 39 (mk-edge "n6" "n2")) edges)) 
(assert (= 2357964 (bandwidth (select edges 39)) ) )
(assert (= 24 (delay (select edges 39)) ) )
(assert (= (store edges 40 (mk-edge "n6" "n4")) edges)) 
(assert (= 336858 (bandwidth (select edges 40)) ) )
(assert (= 4 (delay (select edges 40)) ) )
(assert (= (store edges 41 (mk-edge "n6" "n5")) edges)) 
(assert (= 6422702 (bandwidth (select edges 41)) ) )
(assert (= 65 (delay (select edges 41)) ) )
(assert (= (store edges 42 (mk-edge "n6" "n8")) edges)) 
(assert (= 8975495 (bandwidth (select edges 42)) ) )
(assert (= 90 (delay (select edges 42)) ) )
(assert (= (store edges 43 (mk-edge "n6" "n10")) edges)) 
(assert (= 6769768 (bandwidth (select edges 43)) ) )
(assert (= 68 (delay (select edges 43)) ) )
(assert (= (store edges 44 (mk-edge "n6" "n11")) edges)) 
(assert (= 556379 (bandwidth (select edges 44)) ) )
(assert (= 6 (delay (select edges 44)) ) )
(assert (= (store edges 45 (mk-edge "n7" "n2")) edges)) 
(assert (= 62319 (bandwidth (select edges 45)) ) )
(assert (= 1 (delay (select edges 45)) ) )
(assert (= (store edges 46 (mk-edge "n7" "n3")) edges)) 
(assert (= 22169983 (bandwidth (select edges 46)) ) )
(assert (= 222 (delay (select edges 46)) ) )
(assert (= (store edges 47 (mk-edge "n7" "n4")) edges)) 
(assert (= 3931491 (bandwidth (select edges 47)) ) )
(assert (= 40 (delay (select edges 47)) ) )
(assert (= (store edges 48 (mk-edge "n7" "n8")) edges)) 
(assert (= 4448261 (bandwidth (select edges 48)) ) )
(assert (= 45 (delay (select edges 48)) ) )
(assert (= (store edges 49 (mk-edge "n7" "n9")) edges)) 
(assert (= 1129993 (bandwidth (select edges 49)) ) )
(assert (= 12 (delay (select edges 49)) ) )
(assert (= (store edges 50 (mk-edge "n7" "n11")) edges)) 
(assert (= 949721 (bandwidth (select edges 50)) ) )
(assert (= 10 (delay (select edges 50)) ) )
(assert (= (store edges 51 (mk-edge "n8" "n3")) edges)) 
(assert (= 1875184 (bandwidth (select edges 51)) ) )
(assert (= 19 (delay (select edges 51)) ) )
(assert (= (store edges 52 (mk-edge "n8" "n5")) edges)) 
(assert (= 4927038 (bandwidth (select edges 52)) ) )
(assert (= 50 (delay (select edges 52)) ) )
(assert (= (store edges 53 (mk-edge "n8" "n6")) edges)) 
(assert (= 13317538 (bandwidth (select edges 53)) ) )
(assert (= 134 (delay (select edges 53)) ) )
(assert (= (store edges 54 (mk-edge "n8" "n7")) edges)) 
(assert (= 9920662 (bandwidth (select edges 54)) ) )
(assert (= 100 (delay (select edges 54)) ) )
(assert (= (store edges 55 (mk-edge "n8" "n9")) edges)) 
(assert (= 1544608 (bandwidth (select edges 55)) ) )
(assert (= 16 (delay (select edges 55)) ) )
(assert (= (store edges 56 (mk-edge "n8" "n10")) edges)) 
(assert (= 587075 (bandwidth (select edges 56)) ) )
(assert (= 6 (delay (select edges 56)) ) )
(assert (= (store edges 57 (mk-edge "n8" "n11")) edges)) 
(assert (= 16859708 (bandwidth (select edges 57)) ) )
(assert (= 169 (delay (select edges 57)) ) )
(assert (= (store edges 58 (mk-edge "n9" "n1")) edges)) 
(assert (= 3157562 (bandwidth (select edges 58)) ) )
(assert (= 32 (delay (select edges 58)) ) )
(assert (= (store edges 59 (mk-edge "n9" "n2")) edges)) 
(assert (= 9850577 (bandwidth (select edges 59)) ) )
(assert (= 99 (delay (select edges 59)) ) )
(assert (= (store edges 60 (mk-edge "n9" "n7")) edges)) 
(assert (= 709144 (bandwidth (select edges 60)) ) )
(assert (= 8 (delay (select edges 60)) ) )
(assert (= (store edges 61 (mk-edge "n9" "n8")) edges)) 
(assert (= 1252559 (bandwidth (select edges 61)) ) )
(assert (= 13 (delay (select edges 61)) ) )
(assert (= (store edges 62 (mk-edge "n9" "n10")) edges)) 
(assert (= 26872768 (bandwidth (select edges 62)) ) )
(assert (= 269 (delay (select edges 62)) ) )
(assert (= (store edges 63 (mk-edge "n9" "n11")) edges)) 
(assert (= 8536020 (bandwidth (select edges 63)) ) )
(assert (= 86 (delay (select edges 63)) ) )
(assert (= (store edges 64 (mk-edge "n10" "n2")) edges)) 
(assert (= 900980 (bandwidth (select edges 64)) ) )
(assert (= 10 (delay (select edges 64)) ) )
(assert (= (store edges 65 (mk-edge "n10" "n3")) edges)) 
(assert (= 259062 (bandwidth (select edges 65)) ) )
(assert (= 3 (delay (select edges 65)) ) )
(assert (= (store edges 66 (mk-edge "n10" "n5")) edges)) 
(assert (= 29366017 (bandwidth (select edges 66)) ) )
(assert (= 294 (delay (select edges 66)) ) )
(assert (= (store edges 67 (mk-edge "n10" "n6")) edges)) 
(assert (= 3988111 (bandwidth (select edges 67)) ) )
(assert (= 40 (delay (select edges 67)) ) )
(assert (= (store edges 68 (mk-edge "n10" "n8")) edges)) 
(assert (= 874428 (bandwidth (select edges 68)) ) )
(assert (= 9 (delay (select edges 68)) ) )
(assert (= (store edges 69 (mk-edge "n10" "n9")) edges)) 
(assert (= 23812571 (bandwidth (select edges 69)) ) )
(assert (= 239 (delay (select edges 69)) ) )
(assert (= (store edges 70 (mk-edge "n11" "n2")) edges)) 
(assert (= 1872174 (bandwidth (select edges 70)) ) )
(assert (= 19 (delay (select edges 70)) ) )
(assert (= (store edges 71 (mk-edge "n11" "n3")) edges)) 
(assert (= 9842797 (bandwidth (select edges 71)) ) )
(assert (= 99 (delay (select edges 71)) ) )
(assert (= (store edges 72 (mk-edge "n11" "n5")) edges)) 
(assert (= 27053123 (bandwidth (select edges 72)) ) )
(assert (= 271 (delay (select edges 72)) ) )
(assert (= (store edges 73 (mk-edge "n11" "n6")) edges)) 
(assert (= 1915132 (bandwidth (select edges 73)) ) )
(assert (= 20 (delay (select edges 73)) ) )
(assert (= (store edges 74 (mk-edge "n11" "n7")) edges)) 
(assert (= 1060842 (bandwidth (select edges 74)) ) )
(assert (= 11 (delay (select edges 74)) ) )
(assert (= (store edges 75 (mk-edge "n11" "n8")) edges)) 
(assert (= 24165270 (bandwidth (select edges 75)) ) )
(assert (= 242 (delay (select edges 75)) ) )
(assert (= (store edges 76 (mk-edge "n11" "n9")) edges)) 
(assert (= 6781289 (bandwidth (select edges 76)) ) )
(assert (= 68 (delay (select edges 76)) ) )
(assert (= edges_size 76)) 
;; end of graph configuration, propery verification starts
